c This is QMaxSAT 2017 based on 14.07
c This is Glucose 3.0
c This is MiniSat 2.2.0
c WARNING: for repeatability, setting FPU to use double precision
c card = mrwto, comp = 0, pmodel = 0, narr = 3, mct = 24, verb = 0
cr firstCPXsol 0 0 0
c top = 81479
c |  Number of variables:    1636637                                          |
c |  Number of clauses:      81411588                                         |
c |  Weight of hard clauses: 81479                                            |
c |  Number of soft clauses: 1656                                             |
c |  Number of unit soft clauses: 1656                                        |
c |  Maximum Cardinality (by unit): 244434       (244434      )               |
c last restart ## conflicts  :  249 173924 
o 1768 | cpuTime 55.4058 s
c Sum of weights = 81478
c A number of soft clauses remained = 552
c MRWTO encoding for Pseudo-Boolean Constraints
c sizeMax=1768
c No.0 Divisor=13	generated by pow1
c No.1 Divisor=13	generated by pow1
c No.2 Divisor=13	generated by pow1
c p0= 13	p1= 13	p2= 13	
c number of digits = 4
c linkingVar[0].size = 13, linkingVar[1].size = 13, linkingVar[2].size = 11, linkingVar[3].size = 1, 
c Pseudo-Boolean Constraints: 12583 variables and 130194 clauses
c Sum of weights = 81478
c A number of soft clauses remained = 552
c MRWTO encoding for Pseudo-Boolean Constraints
c sizeMax=1768
c No.0 Divisor=13	generated by pow1
c No.1 Divisor=13	generated by pow1
c No.2 Divisor=13	generated by pow1
c p0= 13	p1= 13	p2= 13	
c number of digits = 4
c linkingVar[0].size = 13, linkingVar[1].size = 13, linkingVar[2].size = 11, linkingVar[3].size = 1, 
c Pseudo-Boolean Constraints: 12583 variables and 130194 clauses
c Sum of weights = 81478
c A number of soft clauses remained = 552
c MRWTO encoding for Pseudo-Boolean Constraints
c sizeMax=1768
c No.0 Divisor=13	generated by pow1
c No.1 Divisor=13	generated by pow1
c No.2 Divisor=13	generated by pow1
c p0= 13	p1= 13	p2= 13	
c number of digits = 4
c linkingVar[0].size = 13, linkingVar[1].size = 13, linkingVar[2].size = 11, linkingVar[3].size = 1, 
c Pseudo-Boolean Constraints: 12583 variables and 130194 clauses
c last restart ## conflicts  :  63 181268 
o 1352 | cpuTime 56.0473 s
c last restart ## conflicts  :  127 173753 
o 1313 | cpuTime 698.138 s
c last restart ## conflicts  :  399 179418 
o 1273 | cpuTime 1385.08 s
c last restart ## conflicts  :  215 178131 
o 1201 | cpuTime 1460.6 s
c last restart ## conflicts  :  534 176325 
o 1167 | cpuTime 1819.31 s
c last restart ## conflicts  :  155 175280 
o 1164 | cpuTime 1822.26 s
c last restart ## conflicts  :  484 182659 
o 1032 | cpuTime 1859.36 s
c last restart ## conflicts  :  383 190554 
o 997 | cpuTime 1929.93 s
c last restart ## conflicts  :  255 189632 
o 936 | cpuTime 2510.95 s
c last restart ## conflicts  :  345 200677 
o 909 | cpuTime 2629.74 s
s UNKNOWN
c Search is stopped by a limit (maybe time-limit)
cr positiVarArr: [ | 16@1(1->16) | 66@1(3->18) | 155@1(7->11) | 215@1(9->23) | 243@1(11->3) | 265@1(12->1) | 297@1(13->9) | 367@1(16->7) | 430@1(18->22) | 517@1(22->13) | 540@1(23->12) | 597@2(1->21) | 619@2(2->19) | 649@2(4->1) | 676@2(5->4) | 893@2(14->5) | 1022@2(19->14) | 1058@2(21->2) | 1169@3(1->17) | 1273@3(6->1) | 1344@3(8->24) | 1374@3(10->6) | 1508@3(15->20) | 1544@3(17->8) | 1618@3(20->10) | 1719@3(24->15) | ]
cr the 1-th chain: [ 1->16->7->11->3->18->22->13->9->23->12->1 ] (#non-depot=10) {#cumul.=11}
cr the 2-th chain: [ 1->21->2->19->14->5->4->1 ] (#non-depot=6) {#cumul.=17}
cr the 3-th chain: [ 1->17->8->24->15->20->10->6->1 ] (#non-depot=7) {#cumul.=24}
c Latest Answer = 0 by 11 loops
c restarts              : 16527
c conflicts             : 2063968        (573 /sec)
c decisions             : 17887656       (0.00 % random) (4970 /sec)
c propagations          : 20487435802    (5692354 /sec)
c conflict literals     : 264484891      (21.04 % deleted)
c Memory used           : 7690.00 MB
c CPU time              : 3599.11 s
